p cnf 1002 1608
113 120 167 201 202 0
113 120 167 201 -202 0
113 120 167 -201 202 0
113 120 167 -201 -202 0
93 -113 167 203 204 0
93 -113 167 203 -204 0
93 -113 167 -203 204 0
93 -113 167 -203 -204 0
-93 -113 167 205 206 0
-93 -113 167 205 -206 0
-93 -113 167 -205 206 0
-93 -113 167 -205 -206 0
120 -167 189 207 208 0
120 -167 189 207 -208 0
120 -167 189 -207 208 0
120 -167 189 -207 -208 0
120 -167 -189 209 210 0
120 -167 -189 209 -210 0
120 -167 -189 -209 210 0
120 -167 -189 -209 -210 0
86 -120 181 211 212 0
86 -120 181 211 -212 0
86 -120 181 -211 212 0
86 -120 181 -211 -212 0
65 156 181 213 214 0
65 156 181 213 -214 0
65 156 181 -213 214 0
65 156 181 -213 -214 0
65 -156 181 215 216 0
65 -156 181 215 -216 0
65 -156 181 -215 216 0
65 -156 181 -215 -216 0
-65 -86 -120 217 218 0
-65 -86 -120 217 -218 0
-65 -86 -120 -217 218 0
-65 -86 -120 -217 -218 0
37 -56 127 219 220 0
37 -56 127 219 -220 0
37 -56 127 -219 220 0
37 -56 127 -219 -220 0
37 -56 -120 221 222 0
37 -56 -120 221 -222 0
37 -56 -120 -221 222 0
37 -56 -120 -221 -222 0
-37 -56 -181 223 224 0
-37 -56 -181 223 -224 0
-37 -56 -181 -223 224 0
-37 -56 -181 -223 -224 0
56 96 -181 225 226 0
56 96 -181 225 -226 0
56 96 -181 -225 226 0
56 96 -181 -225 -226 0
-96 -156 -181 227 228 0
-96 -156 -181 227 -228 0
-96 -156 -181 -227 228 0
-96 -156 -181 -227 -228 0
29 105 156 229 230 0
29 105 156 229 -230 0
29 105 156 -229 230 0
29 105 156 -229 -230 0
29 -105 152 231 232 0
29 -105 152 231 -232 0
29 -105 152 -231 232 0
29 -105 152 -231 -232 0
29 -152 156 233 234 0
29 -152 156 233 -234 0
29 -152 156 -233 234 0
29 -152 156 -233 -234 0
9 -29 -96 235 236 0
9 -29 -96 235 -236 0
9 -29 -96 -235 236 0
9 -29 -96 -235 -236 0
-9 -29 -65 237 238 0
-9 -29 -65 237 -238 0
-9 -29 -65 -237 238 0
-9 -29 -65 -237 -238 0
-9 -29 55 239 240 0
-9 -29 55 239 -240 0
-9 -29 55 -239 240 0
-9 -29 55 -239 -240 0
-9 -55 -142 241 242 0
-9 -55 -142 241 -242 0
-9 -55 -142 -241 242 0
-9 -55 -142 -241 -242 0
-55 142 179 243 244 0
-55 142 179 243 -244 0
-55 142 179 -243 244 0
-55 142 179 -243 -244 0
-55 77 115 245 246 0
-55 77 115 245 -246 0
-55 77 115 -245 246 0
-55 77 115 -245 -246 0
77 115 -183 247 248 0
77 115 -183 247 -248 0
77 115 -183 -247 248 0
77 115 -183 -247 -248 0
77 -115 -179 249 250 0
77 -115 -179 249 -250 0
77 -115 -179 -249 250 0
77 -115 -179 -249 -250 0
-8 -77 170 251 252 0
-8 -77 170 251 -252 0
-8 -77 170 -251 252 0
-8 -77 170 -251 -252 0
-8 -170 -179 253 254 0
-8 -170 -179 253 -254 0
-8 -170 -179 -253 254 0
-8 -170 -179 -253 -254 0
-30 -77 -179 255 256 0
-30 -77 -179 255 -256 0
-30 -77 -179 -255 256 0
-30 -77 -179 -255 -256 0
16 30 -77 257 258 0
16 30 -77 257 -258 0
16 30 -77 -257 258 0
16 30 -77 -257 -258 0
-16 30 -134 259 260 0
-16 30 -134 259 -260 0
-16 30 -134 -259 260 0
-16 30 -134 -259 -260 0
6 -134 -171 261 262 0
6 -134 -171 261 -262 0
6 -134 -171 -261 262 0
6 -134 -171 -261 -262 0
-6 30 -134 263 264 0
-6 30 -134 263 -264 0
-6 30 -134 -263 264 0
-6 30 -134 -263 -264 0
69 134 188 265 266 0
69 134 188 265 -266 0
69 134 188 -265 266 0
69 134 188 -265 -266 0
-16 48 69 267 268 0
-16 48 69 267 -268 0
-16 48 69 -267 268 0
-16 48 69 -267 -268 0
-48 69 134 269 270 0
-48 69 134 269 -270 0
-48 69 134 -269 270 0
-48 69 134 -269 -270 0
-16 -69 -192 271 272 0
-16 -69 -192 271 -272 0
-16 -69 -192 -271 272 0
-16 -69 -192 -271 -272 0
-69 134 -198 273 274 0
-69 134 -198 273 -274 0
-69 134 -198 -273 274 0
-69 134 -198 -273 -274 0
10 -69 192 275 276 0
10 -69 192 275 -276 0
10 -69 192 -275 276 0
10 -69 192 -275 -276 0
12 18 192 277 278 0
12 18 192 277 -278 0
12 18 192 -277 278 0
12 18 192 -277 -278 0
-12 18 192 279 280 0
-12 18 192 279 -280 0
-12 18 192 -279 280 0
-12 18 192 -279 -280 0
-10 80 153 281 282 0
-10 80 153 281 -282 0
-10 80 153 -281 282 0
-10 80 153 -281 -282 0
-10 -80 153 283 284 0
-10 -80 153 283 -284 0
-10 -80 153 -283 284 0
-10 -80 153 -283 -284 0
-10 -18 94 285 286 0
-10 -18 94 285 -286 0
-10 -18 94 -285 286 0
-10 -18 94 -285 -286 0
-18 -153 -189 287 288 0
-18 -153 -189 287 -288 0
-18 -153 -189 -287 288 0
-18 -153 -189 -287 -288 0
91 -114 -153 289 290 0
91 -114 -153 289 -290 0
91 -114 -153 -289 290 0
91 -114 -153 -289 -290 0
19 -114 146 291 292 0
19 -114 146 291 -292 0
19 -114 146 -291 292 0
19 -114 146 -291 -292 0
-19 146 -153 293 294 0
-19 146 -153 293 -294 0
-19 146 -153 -293 294 0
-19 146 -153 -293 -294 0
-94 -114 -146 295 296 0
-94 -114 -146 295 -296 0
-94 -114 -146 -295 296 0
-94 -114 -146 -295 -296 0
-64 -94 114 297 298 0
-64 -94 114 297 -298 0
-64 -94 114 -297 298 0
-64 -94 114 -297 -298 0
41 64 114 299 300 0
41 64 114 299 -300 0
41 64 114 -299 300 0
41 64 114 -299 -300 0
-37 -41 58 301 302 0
-37 -41 58 301 -302 0
-37 -41 58 -301 302 0
-37 -41 58 -301 -302 0
-37 -58 114 303 304 0
-37 -58 114 303 -304 0
-37 -58 114 -303 304 0
-37 -58 114 -303 -304 0
-41 51 154 305 306 0
-41 51 154 305 -306 0
-41 51 154 -305 306 0
-41 51 154 -305 -306 0
51 -67 154 307 308 0
51 -67 154 307 -308 0
51 -67 154 -307 308 0
51 -67 154 -307 -308 0
37 -51 154 309 310 0
37 -51 154 309 -310 0
37 -51 154 -309 310 0
37 -51 154 -309 -310 0
-41 -154 186 311 312 0
-41 -154 186 311 -312 0
-41 -154 186 -311 312 0
-41 -154 186 -311 -312 0
104 -161 -186 313 314 0
104 -161 -186 313 -314 0
104 -161 -186 -313 314 0
104 -161 -186 -313 -314 0
-104 -154 -161 315 316 0
-104 -154 -161 315 -316 0
-104 -154 -161 -315 316 0
-104 -154 -161 -315 -316 0
-109 -154 -186 317 318 0
-109 -154 -186 317 -318 0
-109 -154 -186 -317 318 0
-109 -154 -186 -317 -318 0
-3 109 -186 319 320 0
-3 109 -186 319 -320 0
-3 109 -186 -319 320 0
-3 109 -186 -319 -320 0
1 3 -61 321 322 0
1 3 -61 321 -322 0
1 3 -61 -321 322 0
1 3 -61 -321 -322 0
-1 3 172 323 324 0
-1 3 172 323 -324 0
-1 3 172 -323 324 0
-1 3 172 -323 -324 0
3 -61 -172 325 326 0
3 -61 -172 325 -326 0
3 -61 -172 -325 326 0
3 -61 -172 -325 -326 0
61 109 164 327 328 0
61 109 164 327 -328 0
61 109 164 -327 328 0
61 109 164 -327 -328 0
33 -164 -187 329 330 0
33 -164 -187 329 -330 0
33 -164 -187 -329 330 0
33 -164 -187 -329 -330 0
-33 89 -187 331 332 0
-33 89 -187 331 -332 0
-33 89 -187 -331 332 0
-33 89 -187 -331 -332 0
61 -89 -187 333 334 0
61 -89 -187 333 -334 0
61 -89 -187 -333 334 0
61 -89 -187 -333 -334 0
61 -164 -197 335 336 0
61 -164 -197 335 -336 0
61 -164 -197 -335 336 0
61 -164 -197 -335 -336 0
-159 -164 197 337 338 0
-159 -164 197 337 -338 0
-159 -164 197 -337 338 0
-159 -164 197 -337 -338 0
49 110 125 339 340 0
49 110 125 339 -340 0
49 110 125 -339 340 0
49 110 125 -339 -340 0
49 -110 125 341 342 0
49 -110 125 341 -342 0
49 -110 125 -341 342 0
49 -110 125 -341 -342 0
49 159 197 343 344 0
49 159 197 343 -344 0
49 159 197 -343 344 0
49 159 197 -343 -344 0
-49 165 197 345 346 0
-49 165 197 345 -346 0
-49 165 197 -345 346 0
-49 165 197 -345 -346 0
-49 -165 166 347 348 0
-49 -165 166 347 -348 0
-49 -165 166 -347 348 0
-49 -165 166 -347 -348 0
91 161 -166 349 350 0
91 161 -166 349 -350 0
91 161 -166 -349 350 0
91 161 -166 -349 -350 0
-49 91 -166 351 352 0
-49 91 -166 351 -352 0
-49 91 -166 -351 352 0
-49 91 -166 -351 -352 0
-91 -165 185 353 354 0
-91 -165 185 353 -354 0
-91 -165 185 -353 354 0
-91 -165 185 -353 -354 0
8 -104 -166 355 356 0
8 -104 -166 355 -356 0
8 -104 -166 -355 356 0
8 -104 -166 -355 -356 0
-8 -91 -104 357 358 0
-8 -91 -104 357 -358 0
-8 -91 -104 -357 358 0
-8 -91 -104 -357 -358 0
64 100 199 359 360 0
64 100 199 359 -360 0
64 100 199 -359 360 0
64 100 199 -359 -360 0
-64 -91 199 361 362 0
-64 -91 199 361 -362 0
-64 -91 199 -361 362 0
-64 -91 199 -361 -362 0
75 100 -185 363 364 0
75 100 -185 363 -364 0
75 100 -185 -363 364 0
75 100 -185 -363 -364 0
-75 100 -199 365 366 0
-75 100 -199 365 -366 0
-75 100 -199 -365 366 0
-75 100 -199 -365 -366 0
-95 -100 -185 367 368 0
-95 -100 -185 367 -368 0
-95 -100 -185 -367 368 0
-95 -100 -185 -367 -368 0
62 95 -100 369 370 0
62 95 -100 369 -370 0
62 95 -100 -369 370 0
62 95 -100 -369 -370 0
-62 -100 124 371 372 0
-62 -100 124 371 -372 0
-62 -100 124 -371 372 0
-62 -100 124 -371 -372 0
-124 171 196 373 374 0
-124 171 196 373 -374 0
-124 171 196 -373 374 0
-124 171 196 -373 -374 0
148 -171 196 375 376 0
148 -171 196 375 -376 0
148 -171 196 -375 376 0
148 -171 196 -375 -376 0
84 112 148 377 378 0
84 112 148 377 -378 0
84 112 148 -377 378 0
84 112 148 -377 -378 0
-62 84 -112 379 380 0
-62 84 -112 379 -380 0
-62 84 -112 -379 380 0
-62 84 -112 -379 -380 0
-84 -124 148 381 382 0
-84 -124 148 381 -382 0
-84 -124 148 -381 382 0
-84 -124 148 -381 -382 0
-62 -82 -148 383 384 0
-62 -82 -148 383 -384 0
-62 -82 -148 -383 384 0
-62 -82 -148 -383 -384 0
-87 -124 -148 385 386 0
-87 -124 -148 385 -386 0
-87 -124 -148 -385 386 0
-87 -124 -148 -385 -386 0
20 82 -183 387 388 0
20 82 -183 387 -388 0
20 82 -183 -387 388 0
20 82 -183 -387 -388 0
-20 -148 -183 389 390 0
-20 -148 -183 389 -390 0
-20 -148 -183 -389 390 0
-20 -148 -183 -389 -390 0
82 -137 183 391 392 0
82 -137 183 391 -392 0
82 -137 183 -391 392 0
82 -137 183 -391 -392 0
-4 158 183 393 394 0
-4 158 183 393 -394 0
-4 158 183 -393 394 0
-4 158 183 -393 -394 0
-4 137 -158 395 396 0
-4 137 -158 395 -396 0
-4 137 -158 -395 396 0
-4 137 -158 -395 -396 0
4 -98 183 397 398 0
4 -98 183 397 -398 0
4 -98 183 -397 398 0
4 -98 183 -397 -398 0
21 137 -174 399 400 0
21 137 -174 399 -400 0
21 137 -174 -399 400 0
21 137 -174 -399 -400 0
4 -21 -174 401 402 0
4 -21 -174 401 -402 0
4 -21 -174 -401 402 0
4 -21 -174 -401 -402 0
45 159 174 403 404 0
45 159 174 403 -404 0
45 159 174 -403 404 0
45 159 174 -403 -404 0
4 45 -159 405 406 0
4 45 -159 405 -406 0
4 45 -159 -405 406 0
4 45 -159 -405 -406 0
11 -45 174 407 408 0
11 -45 174 407 -408 0
11 -45 174 -407 408 0
11 -45 174 -407 -408 0
-11 -45 191 409 410 0
-11 -45 191 409 -410 0
-11 -45 191 -409 410 0
-11 -45 191 -409 -410 0
-45 93 146 411 412 0
-45 93 146 411 -412 0
-45 93 146 -411 412 0
-45 93 146 -411 -412 0
93 -146 -191 413 414 0
93 -146 -191 413 -414 0
93 -146 -191 -413 414 0
93 -146 -191 -413 -414 0
-93 99 -191 415 416 0
-93 99 -191 415 -416 0
-93 99 -191 -415 416 0
-93 99 -191 -415 -416 0
60 -93 -99 417 418 0
60 -93 -99 417 -418 0
60 -93 -99 -417 418 0
60 -93 -99 -417 -418 0
-44 -60 -99 419 420 0
-44 -60 -99 419 -420 0
-44 -60 -99 -419 420 0
-44 -60 -99 -419 -420 0
-12 -99 177 421 422 0
-12 -99 177 421 -422 0
-12 -99 177 -421 422 0
-12 -99 177 -421 -422 0
-12 -60 -177 423 424 0
-12 -60 -177 423 -424 0
-12 -60 -177 -423 424 0
-12 -60 -177 -423 -424 0
12 -60 128 425 426 0
12 -60 128 425 -426 0
12 -60 128 -425 426 0
12 -60 128 -425 -426 0
12 -128 -136 427 428 0
12 -128 -136 427 -428 0
12 -128 -136 -427 428 0
12 -128 -136 -427 -428 0
-128 136 168 429 430 0
-128 136 168 429 -430 0
-128 136 168 -429 430 0
-128 136 168 -429 -430 0
27 53 -168 431 432 0
27 53 -168 431 -432 0
27 53 -168 -431 432 0
27 53 -168 -431 -432 0
-27 53 -128 433 434 0
-27 53 -128 433 -434 0
-27 53 -128 -433 434 0
-27 53 -128 -433 -434 0
-53 -123 -168 435 436 0
-53 -123 -168 435 -436 0
-53 -123 -168 -435 436 0
-53 -123 -168 -435 -436 0
-53 -102 -168 437 438 0
-53 -102 -168 437 -438 0
-53 -102 -168 -437 438 0
-53 -102 -168 -437 -438 0
32 -53 102 439 440 0
32 -53 102 439 -440 0
32 -53 102 -439 440 0
32 -53 102 -439 -440 0
-32 102 130 441 442 0
-32 102 130 441 -442 0
-32 102 130 -441 442 0
-32 102 130 -441 -442 0
-32 -130 -170 443 444 0
-32 -130 -170 443 -444 0
-32 -130 -170 -443 444 0
-32 -130 -170 -443 -444 0
-32 58 -130 445 446 0
-32 58 -130 445 -446 0
-32 58 -130 -445 446 0
-32 58 -130 -445 -446 0
-22 -58 -130 447 448 0
-22 -58 -130 447 -448 0
-22 -58 -130 -447 448 0
-22 -58 -130 -447 -448 0
22 94 -119 449 450 0
22 94 -119 449 -450 0
22 94 -119 -449 450 0
22 94 -119 -449 -450 0
22 65 -119 451 452 0
22 65 -119 451 -452 0
22 65 -119 -451 452 0
22 65 -119 -451 -452 0
22 -65 -119 453 454 0
22 -65 -119 453 -454 0
22 -65 -119 -453 454 0
22 -65 -119 -453 -454 0
-58 -105 119 455 456 0
-58 -105 119 455 -456 0
-58 -105 119 -455 456 0
-58 -105 119 -455 -456 0
105 119 -155 457 458 0
105 119 -155 457 -458 0
105 119 -155 -457 458 0
105 119 -155 -457 -458 0
-24 105 -155 459 460 0
-24 105 -155 459 -460 0
-24 105 -155 -459 460 0
-24 105 -155 -459 -460 0
119 155 185 461 462 0
119 155 185 461 -462 0
119 155 185 -461 462 0
119 155 185 -461 -462 0
155 -185 188 463 464 0
155 -185 188 463 -464 0
155 -185 188 -463 464 0
155 -185 188 -463 -464 0
122 155 -188 465 466 0
122 155 -188 465 -466 0
122 155 -188 -465 466 0
122 155 -188 -465 -466 0
-122 145 -188 467 468 0
-122 145 -188 467 -468 0
-122 145 -188 -467 468 0
-122 145 -188 -467 -468 0
-23 -122 -145 469 470 0
-23 -122 -145 469 -470 0
-23 -122 -145 -469 470 0
-23 -122 -145 -469 -470 0
-122 -145 196 471 472 0
-122 -145 196 471 -472 0
-122 -145 196 -471 472 0
-122 -145 196 -471 -472 0
-34 -145 -196 473 474 0
-34 -145 -196 473 -474 0
-34 -145 -196 -473 474 0
-34 -145 -196 -473 -474 0
23 172 189 475 476 0
23 172 189 475 -476 0
23 172 189 -475 476 0
23 172 189 -475 -476 0
23 172 -196 477 478 0
23 172 -196 477 -478 0
23 172 -196 -477 478 0
23 172 -196 -477 -478 0
-141 -172 -196 479 480 0
-141 -172 -196 479 -480 0
-141 -172 -196 -479 480 0
-141 -172 -196 -479 -480 0
2 34 -172 481 482 0
2 34 -172 481 -482 0
2 34 -172 -481 482 0
2 34 -172 -481 -482 0
-2 116 -157 483 484 0
-2 116 -157 483 -484 0
-2 116 -157 -483 484 0
-2 116 -157 -483 -484 0
35 -116 -157 485 486 0
35 -116 -157 485 -486 0
35 -116 -157 -485 486 0
35 -116 -157 -485 -486 0
-35 -116 -157 487 488 0
-35 -116 -157 487 -488 0
-35 -116 -157 -487 488 0
-35 -116 -157 -487 -488 0
141 177 -200 489 490 0
141 177 -200 489 -490 0
141 177 -200 -489 490 0
141 177 -200 -489 -490 0
-2 -177 -200 491 492 0
-2 -177 -200 491 -492 0
-2 -177 -200 -491 492 0
-2 -177 -200 -491 -492 0
-2 79 200 493 494 0
-2 79 200 493 -494 0
-2 79 200 -493 494 0
-2 79 200 -493 -494 0
-79 -171 200 495 496 0
-79 -171 200 495 -496 0
-79 -171 200 -495 496 0
-79 -171 200 -495 -496 0
-79 92 175 497 498 0
-79 92 175 497 -498 0
-79 92 175 -497 498 0
-79 92 175 -497 -498 0
92 171 -175 499 500 0
92 171 -175 499 -500 0
92 171 -175 -499 500 0
92 171 -175 -499 -500 0
-71 -79 -92 501 502 0
-71 -79 -92 501 -502 0
-71 -79 -92 -501 502 0
-71 -79 -92 -501 -502 0
15 -92 171 503 504 0
15 -92 171 503 -504 0
15 -92 171 -503 504 0
15 -92 171 -503 -504 0
-15 31 -92 505 506 0
-15 31 -92 505 -506 0
-15 31 -92 -505 506 0
-15 31 -92 -505 -506 0
-31 97 142 507 508 0
-31 97 142 507 -508 0
-31 97 142 -507 508 0
-31 97 142 -507 -508 0
59 97 -142 509 510 0
59 97 -142 509 -510 0
59 97 -142 -509 510 0
59 97 -142 -509 -510 0
59 -61 -142 511 512 0
59 -61 -142 511 -512 0
59 -61 -142 -511 512 0
59 -61 -142 -511 -512 0
-15 59 -97 513 514 0
-15 59 -97 513 -514 0
-15 59 -97 -513 514 0
-15 59 -97 -513 -514 0
-15 -31 -88 515 516 0
-15 -31 -88 515 -516 0
-15 -31 -88 -515 516 0
-15 -31 -88 -515 -516 0
-21 -31 -59 517 518 0
-21 -31 -59 517 -518 0
-21 -31 -59 -517 518 0
-21 -31 -59 -517 -518 0
-59 132 -152 519 520 0
-59 132 -152 519 -520 0
-59 132 -152 -519 520 0
-59 132 -152 -519 -520 0
21 -59 -152 521 522 0
21 -59 -152 521 -522 0
21 -59 -152 -521 522 0
21 -59 -152 -521 -522 0
-86 152 170 523 524 0
-86 152 170 523 -524 0
-86 152 170 -523 524 0
-86 152 170 -523 -524 0
-86 152 -170 525 526 0
-86 152 -170 525 -526 0
-86 152 -170 -525 526 0
-86 152 -170 -525 -526 0
21 40 44 527 528 0
21 40 44 527 -528 0
21 40 44 -527 528 0
21 40 44 -527 -528 0
40 -44 182 529 530 0
40 -44 182 529 -530 0
40 -44 182 -529 530 0
40 -44 182 -529 -530 0
40 -44 86 531 532 0
40 -44 86 531 -532 0
40 -44 86 -531 532 0
40 -44 86 -531 -532 0
54 86 136 533 534 0
54 86 136 533 -534 0
54 86 136 -533 534 0
54 86 136 -533 -534 0
54 63 -136 535 536 0
54 63 -136 535 -536 0
54 63 -136 -535 536 0
54 63 -136 -535 -536 0
-40 54 -136 537 538 0
-40 54 -136 537 -538 0
-40 54 -136 -537 538 0
-40 54 -136 -537 -538 0
56 66 180 539 540 0
56 66 180 539 -540 0
56 66 180 -539 540 0
56 66 180 -539 -540 0
-54 56 -66 541 542 0
-54 56 -66 541 -542 0
-54 56 -66 -541 542 0
-54 56 -66 -541 -542 0
-40 -54 180 543 544 0
-40 -54 180 543 -544 0
-40 -54 180 -543 544 0
-40 -54 180 -543 -544 0
-40 -167 -180 545 546 0
-40 -167 -180 545 -546 0
-40 -167 -180 -545 546 0
-40 -167 -180 -545 -546 0
-24 -54 -180 547 548 0
-24 -54 -180 547 -548 0
-24 -54 -180 -547 548 0
-24 -54 -180 -547 -548 0
24 96 -163 549 550 0
24 96 -163 549 -550 0
24 96 -163 -549 550 0
24 96 -163 -549 -550 0
24 -163 -180 551 552 0
24 -163 -180 551 -552 0
24 -163 -180 -551 552 0
24 -163 -180 -551 -552 0
24 163 -190 553 554 0
24 163 -190 553 -554 0
24 163 -190 -553 554 0
24 163 -190 -553 -554 0
149 184 190 555 556 0
149 184 190 555 -556 0
149 184 190 -555 556 0
149 184 190 -555 -556 0
149 161 190 557 558 0
149 161 190 557 -558 0
149 161 190 -557 558 0
149 161 190 -557 -558 0
149 -161 163 559 560 0
149 -161 163 559 -560 0
149 -161 163 -559 560 0
149 -161 163 -559 -560 0
-51 -149 163 561 562 0
-51 -149 163 561 -562 0
-51 -149 163 -561 562 0
-51 -149 163 -561 -562 0
-14 -149 190 563 564 0
-14 -149 190 563 -564 0
-14 -149 190 -563 564 0
-14 -149 190 -563 -564 0
43 68 164 565 566 0
43 68 164 565 -566 0
43 68 164 -565 566 0
43 68 164 -565 -566 0
14 68 164 567 568 0
14 68 164 567 -568 0
14 68 164 -567 568 0
14 68 164 -567 -568 0
14 68 -149 569 570 0
14 68 -149 569 -570 0
14 68 -149 -569 570 0
14 68 -149 -569 -570 0
14 -68 108 571 572 0
14 -68 108 571 -572 0
14 -68 108 -571 572 0
14 -68 108 -571 -572 0
-33 -68 -108 573 574 0
-33 -68 -108 573 -574 0
-33 -68 -108 -573 574 0
-33 -68 -108 -573 -574 0
-68 -108 125 575 576 0
-68 -108 125 575 -576 0
-68 -108 125 -575 576 0
-68 -108 125 -575 -576 0
90 -108 -125 577 578 0
90 -108 -125 577 -578 0
90 -108 -125 -577 578 0
90 -108 -125 -577 -578 0
-75 -90 141 579 580 0
-75 -90 141 579 -580 0
-75 -90 141 -579 580 0
-75 -90 141 -579 -580 0
-75 -125 -141 581 582 0
-75 -125 -141 581 -582 0
-75 -125 -141 -581 582 0
-75 -125 -141 -581 -582 0
51 -90 -106 583 584 0
51 -90 -106 583 -584 0
51 -90 -106 -583 584 0
51 -90 -106 -583 -584 0
-51 -106 -125 585 586 0
-51 -106 -125 585 -586 0
-51 -106 -125 -585 586 0
-51 -106 -125 -585 -586 0
-74 -90 106 587 588 0
-74 -90 106 587 -588 0
-74 -90 106 -587 588 0
-74 -90 106 -587 -588 0
74 106 -160 589 590 0
74 106 -160 589 -590 0
74 106 -160 -589 590 0
74 106 -160 -589 -590 0
74 106 176 591 592 0
74 106 176 591 -592 0
74 106 176 -591 592 0
74 106 176 -591 -592 0
-6 74 -176 593 594 0
-6 74 -176 593 -594 0
-6 74 -176 -593 594 0
-6 74 -176 -593 -594 0
6 -126 -176 595 596 0
6 -126 -176 595 -596 0
6 -126 -176 -595 596 0
6 -126 -176 -595 -596 0
6 -35 -126 597 598 0
6 -35 -126 597 -598 0
6 -35 -126 -597 598 0
6 -35 -126 -597 -598 0
92 118 126 599 600 0
92 118 126 599 -600 0
92 118 126 -599 600 0
92 118 126 -599 -600 0
118 126 -176 601 602 0
118 126 -176 601 -602 0
118 126 -176 -601 602 0
118 126 -176 -601 -602 0
-118 126 182 603 604 0
-118 126 182 603 -604 0
-118 126 182 -603 604 0
-118 126 182 -603 -604 0
20 -103 -118 605 606 0
20 -103 -118 605 -606 0
20 -103 -118 -605 606 0
20 -103 -118 -605 -606 0
-20 -103 -182 607 608 0
-20 -103 -182 607 -608 0
-20 -103 -182 -607 608 0
-20 -103 -182 -607 -608 0
85 -118 -182 609 610 0
85 -118 -182 609 -610 0
85 -118 -182 -609 610 0
85 -118 -182 -609 -610 0
18 -85 162 611 612 0
18 -85 162 611 -612 0
18 -85 162 -611 612 0
18 -85 162 -611 -612 0
-18 162 -182 613 614 0
-18 162 -182 613 -614 0
-18 162 -182 -613 614 0
-18 162 -182 -613 -614 0
83 -85 -162 615 616 0
83 -85 -162 615 -616 0
83 -85 -162 -615 616 0
83 -85 -162 -615 -616 0
-85 -158 -162 617 618 0
-85 -158 -162 617 -618 0
-85 -158 -162 -617 618 0
-85 -158 -162 -617 -618 0
-52 -83 -162 619 620 0
-52 -83 -162 619 -620 0
-52 -83 -162 -619 620 0
-52 -83 -162 -619 -620 0
-83 133 158 621 622 0
-83 133 158 621 -622 0
-83 133 158 -621 622 0
-83 133 158 -621 -622 0
-83 -116 -133 623 624 0
-83 -116 -133 623 -624 0
-83 -116 -133 -623 624 0
-83 -116 -133 -623 -624 0
116 143 158 625 626 0
116 143 158 625 -626 0
116 143 158 -625 626 0
116 143 158 -625 -626 0
116 -143 150 627 628 0
116 -143 150 627 -628 0
116 -143 150 -627 628 0
116 -143 150 -627 -628 0
-66 -143 -150 629 630 0
-66 -143 -150 629 -630 0
-66 -143 -150 -629 630 0
-66 -143 -150 -629 -630 0
-5 112 -150 631 632 0
-5 112 -150 631 -632 0
-5 112 -150 -631 632 0
-5 112 -150 -631 -632 0
-5 -112 -143 633 634 0
-5 -112 -143 633 -634 0
-5 -112 -143 -633 634 0
-5 -112 -143 -633 -634 0
5 -117 -150 635 636 0
5 -117 -150 635 -636 0
5 -117 -150 -635 636 0
5 -117 -150 -635 -636 0
107 109 117 637 638 0
107 109 117 637 -638 0
107 109 117 -637 638 0
107 109 117 -637 -638 0
5 107 -109 639 640 0
5 107 -109 639 -640 0
5 107 -109 -639 640 0
5 107 -109 -639 -640 0
42 62 117 641 642 0
42 62 117 641 -642 0
42 62 117 -641 642 0
42 62 117 -641 -642 0
42 -107 117 643 644 0
42 -107 117 643 -644 0
42 -107 117 -643 644 0
42 -107 117 -643 -644 0
-42 50 -107 645 646 0
-42 50 -107 645 -646 0
-42 50 -107 -645 646 0
-42 50 -107 -645 -646 0
27 -50 -107 647 648 0
27 -50 -107 647 -648 0
27 -50 -107 -647 648 0
27 -50 -107 -647 -648 0
11 -42 -121 649 650 0
11 -42 -121 649 -650 0
11 -42 -121 -649 650 0
11 -42 -121 -649 -650 0
-11 27 -121 651 652 0
-11 27 -121 651 -652 0
-11 27 -121 -651 652 0
-11 27 -121 -651 -652 0
-42 -50 -121 653 654 0
-42 -50 -121 653 -654 0
-42 -50 -121 -653 654 0
-42 -50 -121 -653 -654 0
-27 -50 -146 655 656 0
-27 -50 -146 655 -656 0
-27 -50 -146 -655 656 0
-27 -50 -146 -655 -656 0
-27 63 121 657 658 0
-27 63 121 657 -658 0
-27 63 121 -657 658 0
-27 63 121 -657 -658 0
121 180 193 659 660 0
121 180 193 659 -660 0
121 180 193 -659 660 0
121 180 193 -659 -660 0
-63 71 193 661 662 0
-63 71 193 661 -662 0
-63 71 193 -661 662 0
-63 71 193 -661 -662 0
-71 121 193 663 664 0
-71 121 193 663 -664 0
-71 121 193 -663 664 0
-71 121 193 -663 -664 0
-63 98 -127 665 666 0
-63 98 -127 665 -666 0
-63 98 -127 -665 666 0
-63 98 -127 -665 -666 0
-98 -127 -193 667 668 0
-98 -127 -193 667 -668 0
-98 -127 -193 -667 668 0
-98 -127 -193 -667 -668 0
26 64 184 669 670 0
26 64 184 669 -670 0
26 64 184 -669 670 0
26 64 184 -669 -670 0
26 -64 -193 671 672 0
26 -64 -193 671 -672 0
26 -64 -193 -671 672 0
26 -64 -193 -671 -672 0
-26 -63 184 673 674 0
-26 -63 184 673 -674 0
-26 -63 184 -673 674 0
-26 -63 184 -673 -674 0
94 178 -193 675 676 0
94 178 -193 675 -676 0
94 178 -193 -675 676 0
94 178 -193 -675 -676 0
102 178 -184 677 678 0
102 178 -184 677 -678 0
102 178 -184 -677 678 0
102 178 -184 -677 -678 0
-94 -102 178 679 680 0
-94 -102 178 679 -680 0
-94 -102 178 -679 680 0
-94 -102 178 -679 -680 0
-35 -178 -184 681 682 0
-35 -178 -184 681 -682 0
-35 -178 -184 -681 682 0
-35 -178 -184 -681 -682 0
-89 165 -184 683 684 0
-89 165 -184 683 -684 0
-89 165 -184 -683 684 0
-89 165 -184 -683 -684 0
-89 -165 -178 685 686 0
-89 -165 -178 685 -686 0
-89 -165 -178 -685 686 0
-89 -165 -178 -685 -686 0
35 80 -178 687 688 0
35 80 -178 687 -688 0
35 80 -178 -687 688 0
35 80 -178 -687 -688 0
35 -80 111 689 690 0
35 -80 111 689 -690 0
35 -80 111 -689 690 0
35 -80 111 -689 -690 0
43 -80 -111 691 692 0
43 -80 -111 691 -692 0
43 -80 -111 -691 692 0
43 -80 -111 -691 -692 0
-43 -67 -111 693 694 0
-43 -67 -111 693 -694 0
-43 -67 -111 -693 694 0
-43 -67 -111 -693 -694 0
-43 -111 194 695 696 0
-43 -111 194 695 -696 0
-43 -111 194 -695 696 0
-43 -111 194 -695 -696 0
-26 -43 -194 697 698 0
-26 -43 -194 697 -698 0
-26 -43 -194 -697 698 0
-26 -43 -194 -697 -698 0
26 70 -194 699 700 0
26 70 -194 699 -700 0
26 70 -194 -699 700 0
26 70 -194 -699 -700 0
7 -70 198 701 702 0
7 -70 198 701 -702 0
7 -70 198 -701 702 0
7 -70 198 -701 -702 0
7 -194 -198 703 704 0
7 -194 -198 703 -704 0
7 -194 -198 -703 704 0
7 -194 -198 -703 -704 0
-7 -70 115 705 706 0
-7 -70 115 705 -706 0
-7 -70 115 -705 706 0
-7 -70 115 -705 -706 0
-7 -70 -169 707 708 0
-7 -70 -169 707 -708 0
-7 -70 -169 -707 708 0
-7 -70 -169 -707 -708 0
-7 -48 -115 709 710 0
-7 -48 -115 709 -710 0
-7 -48 -115 -709 710 0
-7 -48 -115 -709 -710 0
-20 -115 169 711 712 0
-20 -115 169 711 -712 0
-20 -115 169 -711 712 0
-20 -115 169 -711 -712 0
13 48 132 713 714 0
13 48 132 713 -714 0
13 48 132 -713 714 0
13 48 132 -713 -714 0
-13 132 169 715 716 0
-13 132 169 715 -716 0
-13 132 169 -715 716 0
-13 132 169 -715 -716 0
48 -131 -132 717 718 0
48 -131 -132 717 -718 0
48 -131 -132 -717 718 0
48 -131 -132 -717 -718 0
71 131 186 719 720 0
71 131 186 719 -720 0
71 131 186 -719 720 0
71 131 186 -719 -720 0
38 -71 186 721 722 0
38 -71 186 721 -722 0
38 -71 186 -721 722 0
38 -71 186 -721 -722 0
38 -132 160 723 724 0
38 -132 160 723 -724 0
38 -132 160 -723 724 0
38 -132 160 -723 -724 0
88 -160 174 725 726 0
88 -160 174 725 -726 0
88 -160 174 -725 726 0
88 -160 174 -725 -726 0
38 88 -174 727 728 0
38 88 -174 727 -728 0
38 88 -174 -727 728 0
38 88 -174 -727 -728 0
-88 131 -160 729 730 0
-88 131 -160 729 -730 0
-88 131 -160 -729 730 0
-88 131 -160 -729 -730 0
-19 34 -38 731 732 0
-19 34 -38 731 -732 0
-19 34 -38 -731 732 0
-19 34 -38 -731 -732 0
-19 -34 -132 733 734 0
-19 -34 -132 733 -734 0
-19 -34 -132 -733 734 0
-19 -34 -132 -733 -734 0
33 62 151 735 736 0
33 62 151 735 -736 0
33 62 151 -735 736 0
33 62 151 -735 -736 0
33 131 151 737 738 0
33 131 151 737 -738 0
33 131 151 -737 738 0
33 131 151 -737 -738 0
-33 -38 151 739 740 0
-33 -38 151 739 -740 0
-33 -38 151 -739 740 0
-33 -38 151 -739 -740 0
-38 129 -151 741 742 0
-38 129 -151 741 -742 0
-38 129 -151 -741 742 0
-38 129 -151 -741 -742 0
-73 -129 141 743 744 0
-73 -129 141 743 -744 0
-73 -129 141 -743 744 0
-73 -129 141 -743 -744 0
-73 -141 -151 745 746 0
-73 -141 -151 745 -746 0
-73 -141 -151 -745 746 0
-73 -141 -151 -745 -746 0
-47 -129 -151 747 748 0
-47 -129 -151 747 -748 0
-47 -129 -151 -747 748 0
-47 -129 -151 -747 -748 0
47 111 139 749 750 0
47 111 139 749 -750 0
47 111 139 -749 750 0
47 111 139 -749 -750 0
47 -129 139 751 752 0
47 -129 139 751 -752 0
47 -129 139 -751 752 0
47 -129 139 -751 -752 0
66 133 -139 753 754 0
66 133 -139 753 -754 0
66 133 -139 -753 754 0
66 133 -139 -753 -754 0
47 -66 133 755 756 0
47 -66 133 755 -756 0
47 -66 133 -755 756 0
47 -66 133 -755 -756 0
135 -139 189 757 758 0
135 -139 189 757 -758 0
135 -139 189 -757 758 0
135 -139 189 -757 -758 0
-133 135 -189 759 760 0
-133 135 -189 759 -760 0
-133 135 -189 -759 760 0
-133 135 -189 -759 -760 0
1 -135 -139 761 762 0
1 -135 -139 761 -762 0
1 -135 -139 -761 762 0
1 -135 -139 -761 -762 0
-1 84 -133 763 764 0
-1 84 -133 763 -764 0
-1 84 -133 -763 764 0
-1 84 -133 -763 -764 0
-1 97 -135 765 766 0
-1 97 -135 765 -766 0
-1 97 -135 -765 766 0
-1 97 -135 -765 -766 0
-84 -97 138 767 768 0
-84 -97 138 767 -768 0
-84 -97 138 -767 768 0
-84 -97 138 -767 -768 0
-30 -84 138 769 770 0
-30 -84 138 769 -770 0
-30 -84 138 -769 770 0
-30 -84 138 -769 -770 0
73 -97 147 771 772 0
73 -97 147 771 -772 0
73 -97 147 -771 772 0
73 -97 147 -771 -772 0
-73 -138 147 773 774 0
-73 -138 147 773 -774 0
-73 -138 147 -773 774 0
-73 -138 147 -773 -774 0
25 -138 -147 775 776 0
25 -138 -147 775 -776 0
25 -138 -147 -775 776 0
25 -138 -147 -775 -776 0
-138 -147 -177 777 778 0
-138 -147 -177 777 -778 0
-138 -147 -177 -777 778 0
-138 -147 -177 -777 -778 0
52 -147 195 779 780 0
52 -147 195 779 -780 0
52 -147 195 -779 780 0
52 -147 195 -779 -780 0
50 -52 195 781 782 0
50 -52 195 781 -782 0
50 -52 195 -781 782 0
50 -52 195 -781 -782 0
-25 34 -52 783 784 0
-25 34 -52 783 -784 0
-25 34 -52 -783 784 0
-25 34 -52 -783 -784 0
-25 -34 195 785 786 0
-25 -34 195 785 -786 0
-25 -34 195 -785 786 0
-25 -34 195 -785 -786 0
-25 -175 -195 787 788 0
-25 -175 -195 787 -788 0
-25 -175 -195 -787 788 0
-25 -175 -195 -787 -788 0
81 177 -195 789 790 0
81 177 -195 789 -790 0
81 177 -195 -789 790 0
81 177 -195 -789 -790 0
46 -81 -195 791 792 0
46 -81 -195 791 -792 0
46 -81 -195 -791 792 0
46 -81 -195 -791 -792 0
5 17 -81 793 794 0
5 17 -81 793 -794 0
5 17 -81 -793 794 0
5 17 -81 -793 -794 0
17 -46 -81 795 796 0
17 -46 -81 795 -796 0
17 -46 -81 -795 796 0
17 -46 -81 -795 -796 0
-17 -46 -110 797 798 0
-17 -46 -110 797 -798 0
-17 -46 -110 -797 798 0
-17 -46 -110 -797 -798 0
82 -140 191 799 800 0
82 -140 191 799 -800 0
82 -140 191 -799 800 0
82 -140 191 -799 -800 0
-17 -140 -191 801 802 0
-17 -140 -191 801 -802 0
-17 -140 -191 -801 802 0
-17 -140 -191 -801 -802 0
-46 -82 -140 803 804 0
-46 -82 -140 803 -804 0
-46 -82 -140 -803 804 0
-46 -82 -140 -803 -804 0
13 140 188 805 806 0
13 140 188 805 -806 0
13 140 188 -805 806 0
13 140 188 -805 -806 0
13 -17 -188 807 808 0
13 -17 -188 807 -808 0
13 -17 -188 -807 808 0
13 -17 -188 -807 -808 0
-13 -78 140 809 810 0
-13 -78 140 809 -810 0
-13 -78 140 -809 810 0
-13 -78 140 -809 -810 0
144 175 198 811 812 0
144 175 198 811 -812 0
144 175 198 -811 812 0
144 175 198 -811 -812 0
144 -175 198 813 814 0
144 -175 198 813 -814 0
144 -175 198 -813 814 0
144 -175 198 -813 -814 0
140 144 -198 815 816 0
140 144 -198 815 -816 0
140 144 -198 -815 816 0
140 144 -198 -815 -816 0
-13 36 -144 817 818 0
-13 36 -144 817 -818 0
-13 36 -144 -817 818 0
-13 36 -144 -817 -818 0
-36 -39 57 819 820 0
-36 -39 57 819 -820 0
-36 -39 57 -819 820 0
-36 -39 57 -819 -820 0
-39 57 -82 821 822 0
-39 57 -82 821 -822 0
-39 57 -82 -821 822 0
-39 57 -82 -821 -822 0
-39 -57 -144 823 824 0
-39 -57 -144 823 -824 0
-39 -57 -144 -823 824 0
-39 -57 -144 -823 -824 0
-36 76 -144 825 826 0
-36 76 -144 825 -826 0
-36 76 -144 -825 826 0
-36 76 -144 -825 -826 0
28 -36 -76 827 828 0
28 -36 -76 827 -828 0
28 -36 -76 -827 828 0
28 -36 -76 -827 -828 0
-28 -76 199 829 830 0
-28 -76 199 829 -830 0
-28 -76 199 -829 830 0
-28 -76 199 -829 -830 0
-28 -76 -113 831 832 0
-28 -76 -113 831 -832 0
-28 -76 -113 -831 832 0
-28 -76 -113 -831 -832 0
-28 173 -199 833 834 0
-28 173 -199 833 -834 0
-28 173 -199 -833 834 0
-28 173 -199 -833 -834 0
72 -173 -199 835 836 0
72 -173 -199 835 -836 0
72 -173 -199 -835 836 0
72 -173 -199 -835 -836 0
-57 -72 103 837 838 0
-57 -72 103 837 -838 0
-57 -72 103 -837 838 0
-57 -72 103 -837 -838 0
-57 -103 -173 839 840 0
-57 -103 -173 839 -840 0
-57 -103 -173 -839 840 0
-57 -103 -173 -839 -840 0
-101 159 -173 841 842 0
-101 159 -173 841 -842 0
-101 159 -173 -841 842 0
-101 159 -173 -841 -842 0
-72 -101 -159 843 844 0
-72 -101 -159 843 -844 0
-72 -101 -159 -843 844 0
-72 -101 -159 -843 -844 0
57 -72 -112 845 846 0
57 -72 -112 845 -846 0
57 -72 -112 -845 846 0
57 -72 -112 -845 -846 0
32 76 107 847 848 0
32 76 107 847 -848 0
32 76 107 -847 848 0
32 76 107 -847 -848 0
-30 46 153 849 850 0
-30 46 153 849 -850 0
-30 46 153 -849 850 0
-30 46 153 -849 -850 0
41 95 173 851 852 0
41 95 173 851 -852 0
41 95 173 -851 852 0
41 95 173 -851 -852 0
2 20 72 853 854 0
2 20 72 853 -854 0
2 20 72 -853 854 0
2 20 72 -853 -854 0
10 17 108 855 856 0
10 17 108 855 -856 0
10 17 108 -855 856 0
10 17 108 -855 -856 0
104 -126 -192 857 858 0
104 -126 -192 857 -858 0
104 -126 -192 -857 858 0
104 -126 -192 -857 -858 0
118 122 -137 859 860 0
118 122 -137 859 -860 0
118 122 -137 -859 860 0
118 122 -137 -859 -860 0
9 79 -135 861 862 0
9 79 -135 861 -862 0
9 79 -135 -861 862 0
9 79 -135 -861 -862 0
-6 72 162 863 864 0
-6 72 162 863 -864 0
-6 72 162 -863 864 0
-6 72 162 -863 -864 0
10 -67 89 865 866 0
10 -67 89 865 -866 0
10 -67 89 -865 866 0
10 -67 89 -865 -866 0
-22 130 -200 867 868 0
-22 130 -200 867 -868 0
-22 130 -200 -867 868 0
-22 130 -200 -867 -868 0
60 73 166 869 870 0
60 73 166 869 -870 0
60 73 166 -869 870 0
60 73 166 -869 -870 0
-4 44 -87 871 872 0
-4 44 -87 871 -872 0
-4 44 -87 -871 872 0
-4 44 -87 -871 -872 0
45 113 124 873 874 0
45 113 124 873 -874 0
45 113 124 -873 874 0
45 113 124 -873 -874 0
136 168 173 875 876 0
136 168 173 875 -876 0
136 168 173 -875 876 0
136 168 173 -875 -876 0
31 176 185 877 878 0
31 176 185 877 -878 0
31 176 185 -877 878 0
31 176 185 -877 -878 0
-74 -110 169 879 880 0
-74 -110 169 879 -880 0
-74 -110 169 -879 880 0
-74 -110 169 -879 -880 0
-78 113 194 881 882 0
-78 113 194 881 -882 0
-78 113 194 -881 882 0
-78 113 194 -881 -882 0
7 101 -131 883 884 0
7 101 -131 883 -884 0
7 101 -131 -883 884 0
7 101 -131 -883 -884 0
2 161 -190 885 886 0
2 161 -190 885 -886 0
2 161 -190 -885 886 0
2 161 -190 -885 -886 0
-21 50 143 887 888 0
-21 50 143 887 -888 0
-21 50 143 -887 888 0
-21 50 143 -887 -888 0
39 79 -87 889 890 0
39 79 -87 889 -890 0
39 79 -87 -889 890 0
39 79 -87 -889 -890 0
11 73 129 891 892 0
11 73 129 891 -892 0
11 73 129 -891 892 0
11 73 129 -891 -892 0
28 129 191 893 894 0
28 129 191 893 -894 0
28 129 191 -893 894 0
28 129 191 -893 -894 0
110 128 194 895 896 0
110 128 194 895 -896 0
110 128 194 -895 896 0
110 128 194 -895 -896 0
103 104 -109 897 898 0
103 104 -109 897 -898 0
103 104 -109 -897 898 0
103 104 -109 -897 -898 0
80 137 150 899 900 0
80 137 150 899 -900 0
80 137 150 -899 900 0
80 137 150 -899 -900 0
87 99 -137 901 902 0
87 99 -137 901 -902 0
87 99 -137 -901 902 0
87 99 -137 -901 -902 0
-23 -48 142 903 904 0
-23 -48 142 903 -904 0
-23 -48 142 -903 904 0
-23 -48 142 -903 -904 0
36 103 182 905 906 0
36 103 182 905 -906 0
36 103 182 -905 906 0
36 103 182 -905 -906 0
-156 157 166 907 908 0
-156 157 166 907 -908 0
-156 157 166 -907 908 0
-156 157 166 -907 -908 0
-26 83 145 909 910 0
-26 83 145 909 -910 0
-26 83 145 -909 910 0
-26 83 145 -909 -910 0
32 95 111 911 912 0
32 95 111 911 -912 0
32 95 111 -911 912 0
32 95 111 -911 -912 0
52 -123 170 913 914 0
52 -123 170 913 -914 0
52 -123 170 -913 914 0
52 -123 170 -913 -914 0
-22 52 -98 915 916 0
-22 52 -98 915 -916 0
-22 52 -98 -915 916 0
-22 52 -98 -915 -916 0
46 88 -105 917 918 0
46 88 -105 917 -918 0
46 88 -105 -917 918 0
46 88 -105 -917 -918 0
-14 -23 200 919 920 0
-14 -23 200 919 -920 0
-14 -23 200 -919 920 0
-14 -23 200 -919 -920 0
-47 98 175 921 922 0
-47 98 175 921 -922 0
-47 98 175 -921 922 0
-47 98 175 -921 -922 0
55 96 176 923 924 0
55 96 176 923 -924 0
55 96 176 -923 924 0
55 96 176 -923 -924 0
-24 124 -169 925 926 0
-24 124 -169 925 -926 0
-24 124 -169 -925 926 0
-24 124 -169 -925 -926 0
28 39 101 927 928 0
28 39 101 927 -928 0
28 39 101 -927 928 0
28 39 101 -927 -928 0
81 112 143 929 930 0
81 112 143 929 -930 0
81 112 143 -929 930 0
81 112 143 -929 -930 0
8 43 150 931 932 0
8 43 150 931 -932 0
8 43 150 -931 932 0
8 43 150 -931 -932 0
9 138 187 933 934 0
9 138 187 933 -934 0
9 138 187 -933 934 0
9 138 187 -933 -934 0
-47 85 101 935 936 0
-47 85 101 935 -936 0
-47 85 101 -935 936 0
-47 85 101 -935 -936 0
78 -95 -102 937 938 0
78 -95 -102 937 -938 0
78 -95 -102 -937 938 0
78 -95 -102 -937 -938 0
1 41 110 939 940 0
1 41 110 939 -940 0
1 41 110 -939 940 0
1 41 110 -939 -940 0
63 122 130 941 942 0
63 122 130 941 -942 0
63 122 130 -941 942 0
63 122 130 -941 -942 0
25 99 139 943 944 0
25 99 139 943 -944 0
25 99 139 -943 944 0
25 99 139 -943 -944 0
-11 67 -117 945 946 0
-11 67 -117 945 -946 0
-11 67 -117 -945 946 0
-11 67 -117 -945 -946 0
71 83 -101 947 948 0
71 83 -101 947 -948 0
71 83 -101 -947 948 0
71 83 -101 -947 -948 0
70 75 -197 949 950 0
70 75 -197 949 -950 0
70 75 -197 -949 950 0
70 75 -197 -949 -950 0
66 81 -95 951 952 0
66 81 -95 951 -952 0
66 81 -95 -951 952 0
66 81 -95 -951 -952 0
75 98 168 953 954 0
75 98 168 953 -954 0
75 98 168 -953 954 0
75 98 168 -953 -954 0
-3 87 147 955 956 0
-3 87 147 955 -956 0
-3 87 147 -955 956 0
-3 87 147 -955 -956 0
15 70 -96 957 958 0
15 70 -96 957 -958 0
15 70 -96 -957 958 0
15 70 -96 -957 -958 0
-88 -163 179 959 960 0
-88 -163 179 959 -960 0
-88 -163 179 -959 960 0
-88 -163 179 -959 -960 0
87 -127 -155 961 962 0
87 -127 -155 961 -962 0
87 -127 -155 -961 962 0
87 -127 -155 -961 -962 0
-5 39 -158 963 964 0
-5 39 -158 963 -964 0
-5 39 -158 -963 964 0
-5 39 -158 -963 -964 0
23 -123 179 965 966 0
23 -123 179 965 -966 0
23 -123 179 -965 966 0
23 -123 179 -965 -966 0
-3 55 85 967 968 0
-3 55 85 967 -968 0
-3 55 85 -967 968 0
-3 55 85 -967 -968 0
25 187 -192 969 970 0
25 187 -192 969 -970 0
25 187 -192 -969 970 0
25 187 -192 -969 -970 0
-14 160 971 972 973 0
-14 160 971 972 -973 0
-14 160 971 -972 973 0
-14 160 971 -972 -973 0
-14 160 -971 972 973 0
-14 160 -971 972 -973 0
-14 160 -971 -972 973 0
-14 160 -971 -972 -973 0
16 60 -190 974 975 0
16 60 -190 974 -975 0
16 60 -190 -974 975 0
16 60 -190 -974 -975 0
157 165 187 976 977 0
157 165 187 976 -977 0
157 165 187 -976 977 0
157 165 187 -976 -977 0
8 15 -131 978 979 0
8 15 -131 978 -979 0
8 15 -131 -978 979 0
8 15 -131 -978 -979 0
78 145 157 980 981 0
78 145 157 980 -981 0
78 145 157 -980 981 0
78 145 157 -980 -981 0
16 42 123 982 983 0
16 42 123 982 -983 0
16 42 123 -982 983 0
16 42 123 -982 -983 0
67 -117 127 984 985 0
67 -117 127 984 -985 0
67 -117 127 -984 985 0
67 -117 127 -984 -985 0
67 128 -197 986 987 0
67 128 -197 986 -987 0
67 128 -197 -986 987 0
67 128 -197 -986 -987 0
76 78 -78 988 989 0
76 78 -78 988 -989 0
76 78 -78 -988 989 0
76 78 -78 -988 -989 0
31 89 90 990 991 0
31 89 90 990 -991 0
31 89 90 -990 991 0
31 89 90 -990 -991 0
19 90 135 992 993 0
19 90 135 992 -993 0
19 90 135 -992 993 0
19 90 135 -992 -993 0
44 -106 -169 994 995 0
44 -106 -169 994 -995 0
44 -106 -169 -994 995 0
44 -106 -169 -994 -995 0
19 53 108 996 997 0
19 53 108 996 -997 0
19 53 108 -996 997 0
19 53 108 -996 -997 0
36 -74 127 998 999 0
36 -74 127 998 -999 0
36 -74 127 -998 999 0
36 -74 127 -998 -999 0
58 123 1000 1001 1002 0
58 123 1000 1001 -1002 0
58 123 1000 -1001 1002 0
58 123 1000 -1001 -1002 0
58 123 -1000 1001 1002 0
58 123 -1000 1001 -1002 0
58 123 -1000 -1001 1002 0
58 123 -1000 -1001 -1002 0
